jobs  (incl. supersource/sink ):	102
RESOURCES
- renewable                 : 4 R
- nonrenewable              : 4 N
- doubly constrained        : 0 D
************************************************************************
PRECEDENCE RELATIONS:
jobnr.    #modes  #successors   successors
1	1	18		2 3 4 5 6 7 8 9 10 11 12 13 14 17 18 23 27 31 
2	9	9		46 43 39 35 32 29 25 22 15 
3	9	8		43 37 36 35 34 32 20 16 
4	9	11		54 44 43 42 40 39 35 28 24 20 19 
5	9	13		62 52 46 44 42 41 39 37 34 32 29 22 21 
6	9	13		62 54 52 48 42 41 39 37 36 35 33 32 20 
7	9	11		64 55 54 50 46 42 40 35 28 26 24 
8	9	8		50 37 36 32 30 28 24 22 
9	9	11		62 54 48 46 43 41 37 36 33 29 22 
10	9	17		68 64 62 61 57 54 52 51 50 49 46 44 42 40 38 37 30 
11	9	12		71 62 54 46 42 41 39 38 37 34 32 29 
12	9	12		78 68 59 58 55 54 51 50 43 37 33 24 
13	9	13		58 55 54 52 51 44 41 40 38 37 36 34 33 
14	9	10		78 62 61 53 52 40 37 33 29 21 
15	9	11		78 62 58 52 49 47 44 41 40 36 21 
16	9	9		78 62 52 47 46 44 41 40 21 
17	9	12		68 62 61 58 57 53 52 49 45 44 40 38 
18	9	11		71 68 64 59 55 53 42 39 38 37 35 
19	9	11		79 77 68 64 61 60 58 56 55 51 36 
20	9	6		71 64 59 45 38 29 
21	9	10		71 69 68 60 59 57 55 54 45 38 
22	9	7		78 69 68 53 47 40 38 
23	9	10		79 67 66 64 61 57 56 52 43 40 
24	9	9		76 63 62 60 57 53 52 41 38 
25	9	9		77 75 69 62 59 57 53 52 37 
26	9	10		78 76 69 63 61 60 58 53 43 38 
27	9	9		79 77 69 68 64 59 53 47 45 
28	9	9		79 68 67 62 61 58 56 47 45 
29	9	9		76 68 67 66 60 58 57 56 50 
30	9	6		100 78 66 56 53 39 
31	9	9		100 77 66 65 62 60 59 56 51 
32	9	8		78 76 64 63 57 56 55 53 
33	9	6		69 67 64 56 47 45 
34	9	6		77 68 59 57 56 45 
35	9	12		101 100 79 77 76 75 73 70 67 65 63 61 
36	9	6		76 75 66 63 57 53 
37	9	6		98 79 74 67 66 47 
38	9	8		98 79 74 70 67 66 65 56 
39	9	6		101 79 77 74 67 45 
40	9	7		100 77 76 75 71 60 59 
41	9	7		99 98 77 70 65 61 56 
42	9	12		101 98 97 96 82 79 76 75 74 70 69 65 
43	9	12		99 98 96 93 82 81 77 75 74 73 72 70 
44	9	10		101 100 99 98 92 76 73 72 67 65 
45	9	10		97 95 91 81 80 76 75 73 70 63 
46	9	9		100 99 98 92 74 72 70 67 65 
47	9	8		100 92 82 76 73 72 65 60 
48	9	15		101 100 99 98 97 96 95 93 92 91 82 80 76 73 70 
49	9	8		101 95 91 80 75 73 69 63 
50	9	9		99 98 94 79 77 74 73 72 70 
51	9	13		101 99 97 96 95 94 92 87 80 76 74 73 71 
52	9	9		101 98 96 92 85 73 72 71 65 
53	9	7		101 98 97 92 73 67 65 
54	9	14		100 99 98 94 93 91 89 87 84 81 80 77 75 73 
55	9	13		101 98 97 96 94 89 87 84 81 80 75 74 73 
56	9	10		101 96 93 89 84 82 81 75 73 72 
57	9	7		100 96 92 74 73 70 65 
58	9	7		98 92 81 74 73 70 65 
59	9	6		97 95 87 85 73 63 
60	9	8		96 94 91 88 86 81 80 70 
61	9	8		96 95 92 90 85 84 74 72 
62	9	8		97 96 95 94 84 80 74 73 
63	9	11		99 98 96 93 90 89 88 86 84 83 82 
64	9	9		100 97 95 92 89 85 84 83 74 
65	9	9		95 94 93 90 89 88 87 84 80 
66	9	6		99 96 93 92 91 72 
67	9	8		96 95 93 91 88 86 83 81 
68	9	7		100 99 93 89 87 84 83 
69	9	7		100 93 92 88 87 85 84 
70	9	5		90 89 87 85 84 
71	9	5		93 91 89 88 84 
72	9	3		97 87 80 
73	9	3		90 88 86 
74	9	2		91 86 
75	9	2		92 85 
76	9	2		85 83 
77	9	2		95 92 
78	9	2		86 84 
79	9	1		81 
80	9	1		83 
81	9	1		85 
82	9	1		94 
83	9	1		102 
84	9	1		102 
85	9	1		102 
86	9	1		102 
87	9	1		102 
88	9	1		102 
89	9	1		102 
90	9	1		102 
91	9	1		102 
92	9	1		102 
93	9	1		102 
94	9	1		102 
95	9	1		102 
96	9	1		102 
97	9	1		102 
98	9	1		102 
99	9	1		102 
100	9	1		102 
101	9	1		102 
102	1	0		
************************************************************************
REQUESTS/DURATIONS
jobnr.	mode	dur	R1	R2	R3	R4	N1	N2	N3	N4	
------------------------------------------------------------------------
1	1	0	0	0	0	0	0	0	0	0	
2	1	10	3	3	3	2	25	25	17	25	
	2	12	2	3	2	2	24	22	15	23	
	3	13	2	3	2	2	22	17	14	21	
	4	15	2	3	2	2	22	16	13	20	
	5	17	1	2	2	2	21	13	10	16	
	6	18	1	2	2	2	21	9	10	15	
	7	22	1	2	2	2	19	7	8	14	
	8	23	1	2	2	2	19	4	7	12	
	9	27	1	2	2	2	18	2	6	8	
3	1	1	4	2	5	4	23	27	24	25	
	2	3	3	1	4	4	22	24	23	21	
	3	12	3	1	4	4	22	24	23	20	
	4	13	3	1	4	3	20	21	22	17	
	5	15	3	1	3	3	19	21	19	17	
	6	16	3	1	3	3	17	19	18	14	
	7	21	3	1	2	2	16	19	16	12	
	8	27	3	1	2	2	15	16	15	10	
	9	28	3	1	2	2	14	16	15	10	
4	1	4	2	3	4	2	12	26	5	24	
	2	7	2	3	3	2	12	23	4	24	
	3	10	2	3	3	2	12	21	4	23	
	4	11	2	3	3	2	12	18	3	23	
	5	15	2	2	2	2	11	17	2	23	
	6	16	2	2	2	2	11	15	2	22	
	7	17	2	2	2	2	11	12	1	22	
	8	19	2	2	2	2	11	10	1	21	
	9	23	2	2	2	2	11	5	1	21	
5	1	2	4	5	3	3	14	11	25	24	
	2	4	3	4	2	3	14	9	21	22	
	3	6	3	4	2	3	13	8	21	21	
	4	10	3	4	2	3	13	8	19	20	
	5	12	3	4	2	2	12	7	16	17	
	6	13	3	3	1	2	12	7	14	16	
	7	17	3	3	1	2	11	6	14	15	
	8	18	3	3	1	2	11	4	12	14	
	9	30	3	3	1	2	11	4	9	12	
6	1	5	1	2	4	5	9	22	22	23	
	2	16	1	2	4	4	8	22	20	21	
	3	18	1	2	4	4	8	20	20	21	
	4	22	1	2	4	4	8	20	19	19	
	5	23	1	2	4	3	7	17	18	17	
	6	24	1	2	4	3	7	17	16	17	
	7	25	1	2	4	3	6	16	15	14	
	8	26	1	2	4	3	6	14	13	13	
	9	27	1	2	4	3	5	13	13	12	
7	1	3	4	3	3	3	7	26	26	23	
	2	6	3	2	3	2	6	23	26	22	
	3	8	3	2	3	2	6	21	26	22	
	4	14	3	2	3	2	6	18	26	21	
	5	18	2	1	2	1	5	15	26	21	
	6	19	2	1	2	1	5	13	26	21	
	7	20	1	1	2	1	4	11	26	20	
	8	24	1	1	1	1	4	8	26	19	
	9	26	1	1	1	1	4	7	26	19	
8	1	2	1	4	4	3	19	26	10	22	
	2	5	1	4	3	3	18	23	9	21	
	3	9	1	4	3	3	17	22	9	18	
	4	10	1	4	2	3	16	21	9	16	
	5	12	1	4	2	2	15	20	8	15	
	6	13	1	4	2	2	14	18	8	14	
	7	16	1	4	2	2	12	18	7	13	
	8	17	1	4	1	2	11	16	7	10	
	9	19	1	4	1	2	11	15	6	8	
9	1	7	5	4	4	4	28	27	25	13	
	2	11	4	4	4	4	25	24	23	11	
	3	17	4	4	4	3	22	20	21	10	
	4	18	4	4	4	3	20	17	17	9	
	5	19	4	4	4	2	18	15	15	9	
	6	21	4	4	4	2	17	14	12	8	
	7	22	4	4	4	2	14	11	12	7	
	8	25	4	4	4	1	10	6	6	5	
	9	30	4	4	4	1	8	4	4	5	
10	1	1	5	3	3	3	16	4	14	13	
	2	6	5	3	3	2	15	3	13	13	
	3	13	5	3	3	2	14	3	13	13	
	4	17	5	3	3	2	13	3	13	12	
	5	21	5	3	3	2	13	3	12	12	
	6	23	5	3	3	2	12	3	12	12	
	7	26	5	3	3	2	10	3	12	11	
	8	28	5	3	3	2	10	3	12	10	
	9	30	5	3	3	2	9	3	12	11	
11	1	1	3	4	5	3	27	26	16	27	
	2	4	3	4	4	3	22	24	14	25	
	3	7	3	4	4	3	19	21	11	23	
	4	8	3	3	3	2	19	21	10	17	
	5	9	2	3	3	2	15	19	8	15	
	6	10	2	2	3	2	13	16	7	12	
	7	11	1	2	3	2	8	14	6	11	
	8	26	1	1	2	1	7	13	5	5	
	9	27	1	1	2	1	5	12	3	5	
12	1	1	1	5	4	5	25	24	29	14	
	2	8	1	4	3	5	20	23	26	12	
	3	10	1	4	3	5	20	22	25	12	
	4	12	1	3	3	5	18	21	24	11	
	5	13	1	2	2	5	14	21	23	11	
	6	14	1	2	2	5	13	20	22	11	
	7	19	1	2	1	5	11	19	21	10	
	8	21	1	1	1	5	9	17	20	9	
	9	26	1	1	1	5	7	17	20	9	
13	1	2	3	4	4	2	7	14	3	20	
	2	6	2	3	3	1	7	13	3	20	
	3	10	2	3	3	1	7	11	3	20	
	4	21	2	3	3	1	6	10	2	20	
	5	22	2	3	2	1	6	10	2	19	
	6	23	1	3	2	1	6	10	2	19	
	7	26	1	3	1	1	6	9	1	19	
	8	27	1	3	1	1	5	7	1	19	
	9	28	1	3	1	1	5	7	1	18	
14	1	4	4	3	3	5	26	19	16	8	
	2	5	3	3	3	5	26	19	16	7	
	3	6	3	3	3	5	25	17	15	7	
	4	7	3	3	3	5	24	17	14	7	
	5	8	3	3	3	5	24	16	13	7	
	6	9	3	3	3	5	23	15	11	6	
	7	19	3	3	3	5	23	13	10	6	
	8	24	3	3	3	5	22	13	10	6	
	9	30	3	3	3	5	22	11	9	6	
15	1	2	5	3	5	4	3	17	9	12	
	2	5	4	3	5	3	3	17	8	11	
	3	6	4	3	5	3	3	17	7	10	
	4	7	3	3	5	3	3	17	7	10	
	5	14	3	3	5	3	3	17	6	9	
	6	16	3	3	5	3	2	17	4	8	
	7	17	2	3	5	3	2	17	3	8	
	8	20	2	3	5	3	2	17	2	6	
	9	26	2	3	5	3	2	17	2	5	
16	1	1	3	3	5	1	5	17	21	27	
	2	3	3	3	5	1	4	16	18	27	
	3	7	3	3	5	1	4	15	16	26	
	4	11	3	3	5	1	3	15	13	25	
	5	13	3	3	5	1	3	13	12	23	
	6	14	3	3	5	1	2	13	12	21	
	7	15	3	3	5	1	1	12	10	21	
	8	21	3	3	5	1	1	12	7	19	
	9	25	3	3	5	1	1	11	5	17	
17	1	2	4	2	3	4	23	17	27	21	
	2	4	3	1	3	4	22	16	25	18	
	3	10	3	1	3	4	20	16	25	17	
	4	11	3	1	3	4	19	15	20	14	
	5	12	3	1	3	4	18	15	17	12	
	6	23	2	1	3	4	15	15	15	11	
	7	24	2	1	3	4	14	14	13	9	
	8	27	2	1	3	4	12	13	10	8	
	9	29	2	1	3	4	12	13	8	6	
18	1	3	3	2	3	4	20	18	14	7	
	2	4	3	2	2	3	17	16	12	7	
	3	9	3	2	2	3	15	14	11	6	
	4	10	3	2	2	3	14	12	10	6	
	5	12	3	2	2	3	13	12	8	5	
	6	19	3	2	2	2	9	11	7	5	
	7	26	3	2	2	2	8	9	6	5	
	8	27	3	2	2	2	6	7	5	4	
	9	28	3	2	2	2	5	4	3	4	
19	1	2	5	5	5	4	26	11	23	21	
	2	4	4	4	4	4	24	10	22	20	
	3	12	3	3	4	4	23	10	22	19	
	4	14	3	3	4	4	20	10	22	19	
	5	18	2	3	3	4	17	9	21	17	
	6	21	2	2	3	3	15	9	20	17	
	7	25	2	2	3	3	14	8	20	15	
	8	29	1	1	3	3	11	8	18	15	
	9	30	1	1	3	3	9	8	18	14	
20	1	2	4	5	4	4	28	14	28	15	
	2	3	4	4	4	4	25	13	25	14	
	3	4	4	4	4	3	25	12	25	13	
	4	7	4	3	4	3	23	11	21	13	
	5	12	4	3	4	3	21	11	20	11	
	6	18	4	2	3	2	17	10	20	10	
	7	25	4	1	3	2	16	9	18	10	
	8	27	4	1	3	1	13	8	16	8	
	9	29	4	1	3	1	12	8	13	8	
21	1	1	3	5	4	4	8	28	29	21	
	2	3	3	4	4	3	8	25	28	20	
	3	4	3	4	4	3	8	22	28	18	
	4	9	3	4	3	3	8	21	28	17	
	5	15	3	4	3	2	8	18	28	15	
	6	16	2	4	3	2	8	16	28	13	
	7	21	2	4	2	2	8	15	28	12	
	8	23	2	4	2	2	8	14	28	10	
	9	26	2	4	2	2	8	12	28	9	
22	1	1	4	3	2	2	6	26	14	24	
	2	2	4	3	1	2	6	25	13	23	
	3	3	4	3	1	2	6	23	13	22	
	4	4	4	3	1	2	6	19	12	21	
	5	9	3	3	1	1	6	17	11	17	
	6	12	3	3	1	1	6	17	10	16	
	7	18	3	3	1	1	6	13	10	14	
	8	22	2	3	1	1	6	12	9	12	
	9	26	2	3	1	1	6	11	8	11	
23	1	6	4	4	4	4	28	11	14	18	
	2	9	3	4	3	4	27	10	14	18	
	3	10	3	4	3	4	26	9	14	18	
	4	12	3	4	3	4	24	9	13	17	
	5	13	2	3	2	4	24	7	13	17	
	6	16	2	3	2	4	24	6	13	17	
	7	24	1	3	2	4	23	6	13	16	
	8	25	1	2	1	4	22	5	12	16	
	9	26	1	2	1	4	21	4	12	16	
24	1	11	4	5	5	4	2	26	26	7	
	2	15	3	4	5	4	1	25	26	6	
	3	16	3	4	5	4	1	22	24	6	
	4	18	3	3	5	3	1	20	20	6	
	5	19	3	3	5	3	1	17	19	5	
	6	21	2	3	5	3	1	13	17	5	
	7	23	2	2	5	3	1	11	13	5	
	8	27	2	2	5	2	1	8	12	5	
	9	28	2	2	5	2	1	6	11	5	
25	1	3	2	5	5	3	30	20	20	23	
	2	4	1	4	4	2	28	19	20	23	
	3	6	1	4	4	2	28	18	17	19	
	4	9	1	4	3	2	26	15	17	19	
	5	10	1	4	3	1	25	15	15	15	
	6	15	1	4	3	1	25	12	14	12	
	7	16	1	4	3	1	24	12	12	10	
	8	22	1	4	2	1	23	10	10	7	
	9	26	1	4	2	1	22	8	9	5	
26	1	2	1	5	3	4	25	18	24	19	
	2	4	1	4	3	4	22	16	23	18	
	3	11	1	4	3	3	20	14	22	17	
	4	13	1	4	3	3	17	12	22	16	
	5	14	1	4	3	3	13	11	21	16	
	6	20	1	3	3	2	10	9	21	15	
	7	24	1	3	3	2	7	8	21	13	
	8	29	1	3	3	1	7	8	20	13	
	9	30	1	3	3	1	3	6	20	12	
27	1	1	4	3	2	4	29	2	11	13	
	2	8	4	3	2	4	27	2	9	14	
	3	9	4	3	2	4	27	2	9	13	
	4	13	4	3	2	4	26	2	8	13	
	5	18	4	3	2	3	26	2	6	13	
	6	19	4	3	2	3	26	2	5	13	
	7	20	4	3	2	3	25	2	4	13	
	8	28	4	3	2	3	25	2	4	12	
	9	30	4	3	2	3	24	2	3	13	
28	1	1	4	2	4	5	26	25	24	11	
	2	8	3	1	4	4	23	24	24	9	
	3	14	3	1	4	3	19	23	23	9	
	4	15	3	1	4	3	17	22	23	7	
	5	17	2	1	3	3	13	21	22	7	
	6	21	2	1	3	2	13	20	21	5	
	7	23	1	1	2	1	9	19	21	5	
	8	26	1	1	2	1	7	17	21	3	
	9	28	1	1	2	1	3	16	20	3	
29	1	3	4	3	1	4	20	18	24	20	
	2	7	3	2	1	3	20	15	21	16	
	3	8	3	2	1	3	20	14	19	14	
	4	9	2	2	1	3	20	13	14	13	
	5	10	2	1	1	2	20	12	13	10	
	6	11	2	1	1	2	19	11	10	8	
	7	18	2	1	1	2	19	9	6	7	
	8	19	1	1	1	1	19	8	4	5	
	9	20	1	1	1	1	19	7	4	2	
30	1	3	2	5	4	3	17	8	15	23	
	2	7	1	4	3	3	13	8	11	22	
	3	9	1	4	3	3	12	8	10	21	
	4	10	1	4	2	3	10	8	8	19	
	5	13	1	3	2	2	10	8	7	18	
	6	21	1	3	2	2	8	8	5	18	
	7	22	1	3	2	2	7	8	5	17	
	8	23	1	3	1	1	6	8	2	16	
	9	26	1	3	1	1	4	8	2	15	
31	1	2	5	4	1	5	20	27	26	7	
	2	4	4	4	1	4	19	27	24	7	
	3	6	4	4	1	4	18	27	24	7	
	4	7	4	4	1	4	17	27	21	7	
	5	8	4	4	1	4	16	27	21	6	
	6	14	4	4	1	3	15	27	20	6	
	7	20	4	4	1	3	14	27	18	6	
	8	29	4	4	1	3	13	27	17	6	
	9	30	4	4	1	3	12	27	15	6	
32	1	3	2	4	4	3	24	4	28	7	
	2	7	1	4	3	2	23	4	26	6	
	3	11	1	4	3	2	23	4	24	6	
	4	19	1	4	3	2	21	4	22	5	
	5	20	1	4	2	1	21	3	22	5	
	6	21	1	4	2	1	21	3	19	5	
	7	27	1	4	1	1	19	2	18	4	
	8	28	1	4	1	1	19	2	17	4	
	9	29	1	4	1	1	18	2	15	3	
33	1	4	4	4	4	3	29	24	21	29	
	2	12	4	4	4	2	29	19	18	24	
	3	14	4	3	4	2	27	19	17	22	
	4	15	4	3	4	2	27	17	12	22	
	5	22	4	2	4	2	25	15	11	17	
	6	23	4	2	4	2	24	11	10	14	
	7	24	4	1	4	2	24	10	6	12	
	8	25	4	1	4	2	22	6	4	11	
	9	27	4	1	4	2	22	5	2	9	
34	1	3	2	3	4	4	19	26	16	19	
	2	8	2	2	3	4	15	21	15	18	
	3	10	2	2	3	4	13	20	12	15	
	4	19	2	2	3	3	13	18	11	13	
	5	21	2	1	3	3	9	15	9	12	
	6	22	2	1	3	3	7	12	7	8	
	7	23	2	1	3	2	7	12	6	6	
	8	24	2	1	3	2	3	8	3	6	
	9	28	2	1	3	2	2	7	2	2	
35	1	10	2	2	4	4	15	25	22	19	
	2	11	1	1	4	3	14	23	21	18	
	3	12	1	1	4	3	12	20	20	18	
	4	13	1	1	4	3	12	18	18	18	
	5	14	1	1	3	2	10	17	17	18	
	6	17	1	1	3	2	8	14	17	17	
	7	18	1	1	3	2	6	13	14	17	
	8	25	1	1	3	1	5	9	13	17	
	9	27	1	1	3	1	4	9	13	17	
36	1	2	5	3	5	1	22	26	22	7	
	2	3	4	3	4	1	19	25	22	7	
	3	8	3	3	4	1	17	23	22	7	
	4	11	3	3	3	1	15	21	22	7	
	5	20	2	3	3	1	11	19	22	7	
	6	25	2	3	3	1	10	18	22	7	
	7	26	2	3	2	1	7	17	22	7	
	8	28	1	3	2	1	7	13	22	7	
	9	29	1	3	2	1	3	12	22	7	
37	1	2	2	3	4	5	18	7	28	26	
	2	3	2	3	4	5	18	7	26	25	
	3	4	2	3	4	5	18	7	24	21	
	4	10	2	3	3	5	17	7	24	18	
	5	11	2	3	3	5	16	7	21	18	
	6	13	2	3	3	5	16	6	21	14	
	7	18	2	3	3	5	15	6	19	12	
	8	22	2	3	2	5	15	6	18	8	
	9	27	2	3	2	5	15	6	16	7	
38	1	2	5	2	5	1	23	6	13	27	
	2	4	4	2	5	1	23	5	12	24	
	3	13	4	2	5	1	23	5	12	23	
	4	14	4	2	5	1	22	4	11	19	
	5	21	3	2	5	1	21	4	10	18	
	6	23	3	2	5	1	21	3	10	16	
	7	24	3	2	5	1	21	3	9	14	
	8	25	3	2	5	1	20	3	8	12	
	9	26	3	2	5	1	20	2	7	10	
39	1	2	4	4	4	4	21	28	15	23	
	2	9	4	4	3	4	20	23	14	22	
	3	10	4	4	3	4	18	21	14	22	
	4	11	4	4	3	3	16	17	14	22	
	5	13	3	4	3	3	12	15	13	22	
	6	25	3	4	3	2	12	13	13	22	
	7	27	3	4	3	1	9	11	12	22	
	8	29	2	4	3	1	8	8	12	22	
	9	30	2	4	3	1	5	5	12	22	
40	1	1	3	4	2	5	29	22	29	8	
	2	4	3	3	2	4	29	19	28	6	
	3	5	3	3	2	4	28	18	28	6	
	4	7	3	3	2	4	28	15	28	6	
	5	8	3	2	1	4	28	13	28	5	
	6	10	3	2	1	4	27	10	27	4	
	7	18	3	2	1	4	26	8	27	4	
	8	27	3	2	1	4	26	5	27	4	
	9	30	3	2	1	4	26	4	27	3	
41	1	8	3	4	2	4	12	21	21	25	
	2	11	2	4	2	3	12	20	21	22	
	3	15	2	4	2	3	12	20	20	21	
	4	16	2	3	2	3	11	20	19	17	
	5	17	2	3	2	3	11	19	18	16	
	6	22	2	2	2	2	10	19	18	14	
	7	23	2	1	2	2	10	19	17	11	
	8	25	2	1	2	2	9	18	15	10	
	9	26	2	1	2	2	9	18	15	8	
42	1	3	5	5	2	1	28	10	26	29	
	2	4	4	5	2	1	25	8	24	28	
	3	6	4	5	2	1	22	8	24	28	
	4	9	4	5	2	1	19	7	23	27	
	5	10	3	5	2	1	18	6	21	27	
	6	13	3	5	2	1	15	4	21	27	
	7	21	2	5	2	1	13	3	19	27	
	8	28	2	5	2	1	9	3	18	26	
	9	29	2	5	2	1	8	2	18	26	
43	1	6	5	4	2	2	5	25	25	17	
	2	7	4	4	2	2	5	25	25	16	
	3	8	4	4	2	2	5	24	22	14	
	4	11	3	4	2	2	5	24	22	12	
	5	12	3	4	2	2	5	23	21	11	
	6	13	3	4	2	2	5	23	19	10	
	7	14	2	4	2	2	5	22	18	9	
	8	15	2	4	2	2	5	21	16	7	
	9	26	2	4	2	2	5	21	15	4	
44	1	1	4	4	2	5	30	26	19	3	
	2	4	3	4	2	4	25	24	17	3	
	3	6	3	4	2	4	24	21	17	3	
	4	9	3	4	2	4	22	16	16	3	
	5	12	3	3	1	4	18	14	14	2	
	6	19	3	3	1	4	14	12	13	2	
	7	20	3	2	1	4	12	8	12	2	
	8	24	3	2	1	4	8	7	12	2	
	9	25	3	2	1	4	7	4	11	2	
45	1	2	2	5	3	3	24	29	14	26	
	2	7	2	4	3	3	20	27	11	26	
	3	9	2	4	3	3	19	25	10	25	
	4	18	2	3	3	3	15	20	8	24	
	5	20	2	2	3	3	13	18	7	22	
	6	24	2	2	3	2	13	17	6	22	
	7	25	2	2	3	2	9	15	5	21	
	8	26	2	1	3	2	8	12	2	20	
	9	30	2	1	3	2	5	10	1	18	
46	1	1	1	4	4	5	24	21	29	25	
	2	2	1	4	3	4	24	20	26	20	
	3	3	1	4	3	4	23	20	22	18	
	4	5	1	4	3	4	22	20	22	16	
	5	6	1	4	3	3	21	20	18	15	
	6	7	1	3	3	3	21	20	17	13	
	7	18	1	3	3	2	19	20	13	8	
	8	21	1	3	3	2	18	20	10	6	
	9	28	1	3	3	2	18	20	9	5	
47	1	5	1	3	3	3	21	26	24	22	
	2	7	1	3	3	2	18	23	23	20	
	3	13	1	3	3	2	15	21	23	20	
	4	16	1	2	3	2	15	17	23	17	
	5	19	1	2	2	2	11	14	22	13	
	6	20	1	2	2	2	8	12	22	10	
	7	24	1	1	1	2	8	11	22	8	
	8	26	1	1	1	2	4	8	22	7	
	9	27	1	1	1	2	3	7	22	5	
48	1	6	4	3	3	4	12	13	7	6	
	2	12	4	3	3	3	11	13	6	6	
	3	14	4	3	3	3	11	12	6	6	
	4	18	4	3	3	3	10	11	6	6	
	5	19	4	2	3	2	10	8	6	6	
	6	22	4	2	3	2	10	7	5	6	
	7	23	4	2	3	2	10	6	5	6	
	8	24	4	2	3	2	9	6	5	6	
	9	29	4	2	3	2	9	5	5	6	
49	1	3	3	2	2	2	21	27	21	16	
	2	5	2	2	2	2	20	26	19	15	
	3	9	2	2	2	2	19	25	19	13	
	4	10	2	2	2	2	19	24	17	12	
	5	13	2	2	2	2	19	24	16	11	
	6	19	2	2	2	2	18	23	15	9	
	7	22	2	2	2	2	17	22	13	9	
	8	26	2	2	2	2	17	22	12	8	
	9	27	2	2	2	2	17	21	9	7	
50	1	7	4	5	4	2	14	18	26	28	
	2	9	4	4	4	2	12	16	25	28	
	3	10	4	4	3	2	11	13	24	28	
	4	19	4	4	3	2	10	12	21	27	
	5	20	3	3	3	2	10	10	19	27	
	6	21	3	3	2	2	8	7	18	26	
	7	28	3	3	2	2	8	6	18	26	
	8	29	3	3	1	2	6	3	15	25	
	9	30	3	3	1	2	6	3	14	25	
51	1	4	3	2	2	4	19	25	12	29	
	2	6	2	2	2	4	19	24	12	28	
	3	9	2	2	2	3	16	24	12	28	
	4	13	2	2	2	3	15	22	12	27	
	5	17	2	2	2	3	14	22	11	27	
	6	20	2	2	2	2	12	19	11	27	
	7	22	2	2	2	2	10	18	10	27	
	8	25	2	2	2	1	10	17	10	26	
	9	29	2	2	2	1	8	17	10	26	
52	1	1	4	4	5	4	27	23	24	28	
	2	8	4	4	4	4	24	22	20	26	
	3	9	4	4	4	4	21	21	20	26	
	4	10	4	3	4	4	18	20	18	25	
	5	11	4	3	4	4	15	19	15	24	
	6	12	4	3	4	4	15	17	14	23	
	7	19	4	3	4	4	10	17	12	22	
	8	28	4	2	4	4	8	16	10	20	
	9	29	4	2	4	4	6	14	7	19	
53	1	3	4	4	1	1	29	14	19	20	
	2	4	4	4	1	1	28	13	18	18	
	3	9	4	4	1	1	27	13	18	18	
	4	10	4	3	1	1	25	11	17	16	
	5	15	4	3	1	1	24	11	15	16	
	6	20	4	2	1	1	23	8	14	14	
	7	23	4	2	1	1	20	7	14	13	
	8	24	4	1	1	1	20	7	13	13	
	9	30	4	1	1	1	19	5	12	11	
54	1	2	5	1	4	3	27	15	18	22	
	2	3	4	1	4	2	25	15	18	22	
	3	11	4	1	4	2	23	15	15	21	
	4	13	4	1	4	2	22	14	14	21	
	5	21	3	1	4	2	22	13	12	20	
	6	22	3	1	4	1	19	13	11	20	
	7	23	3	1	4	1	19	13	9	19	
	8	24	3	1	4	1	17	12	9	19	
	9	28	3	1	4	1	16	12	6	18	
55	1	6	5	3	2	5	29	13	2	23	
	2	7	4	3	2	4	29	12	2	22	
	3	8	4	3	2	3	29	12	2	22	
	4	14	4	3	2	3	28	11	2	21	
	5	21	4	3	2	3	27	10	2	21	
	6	23	4	3	1	2	27	10	2	21	
	7	27	4	3	1	1	26	9	2	20	
	8	28	4	3	1	1	26	9	2	19	
	9	29	4	3	1	1	26	9	2	18	
56	1	3	2	2	3	4	9	20	24	23	
	2	6	2	1	3	4	8	18	22	20	
	3	12	2	1	3	4	7	15	20	16	
	4	14	2	1	3	4	7	15	16	13	
	5	17	2	1	2	3	6	13	16	11	
	6	20	2	1	2	3	6	10	13	10	
	7	24	2	1	2	2	5	8	11	8	
	8	26	2	1	1	2	5	6	9	3	
	9	28	2	1	1	2	5	5	7	1	
57	1	3	4	3	5	5	13	19	28	29	
	2	13	4	2	4	4	12	16	24	28	
	3	14	4	2	4	3	11	14	24	26	
	4	19	4	2	4	3	11	12	19	22	
	5	20	4	2	4	3	8	10	15	20	
	6	21	3	2	3	2	8	10	13	18	
	7	23	3	2	3	1	7	8	12	16	
	8	24	3	2	3	1	6	5	7	16	
	9	27	3	2	3	1	4	3	4	13	
58	1	5	2	4	2	2	11	23	29	13	
	2	10	1	3	2	2	11	22	28	13	
	3	11	1	3	2	2	10	21	28	12	
	4	12	1	3	2	2	9	21	28	11	
	5	15	1	2	2	1	8	20	28	9	
	6	17	1	2	2	1	6	19	28	7	
	7	23	1	2	2	1	5	18	28	6	
	8	26	1	1	2	1	4	16	28	6	
	9	28	1	1	2	1	4	15	28	5	
59	1	9	2	4	4	2	30	22	28	4	
	2	17	2	4	4	2	24	21	28	4	
	3	19	2	4	3	2	24	21	28	4	
	4	21	2	4	3	2	19	20	28	4	
	5	22	2	4	3	2	18	20	28	3	
	6	25	2	4	2	2	13	20	28	3	
	7	26	2	4	1	2	12	20	28	3	
	8	27	2	4	1	2	10	19	28	2	
	9	29	2	4	1	2	5	19	28	2	
60	1	1	3	4	2	2	22	29	25	30	
	2	5	2	4	2	1	20	25	24	28	
	3	7	2	4	2	1	17	22	19	26	
	4	10	2	4	2	1	16	20	16	23	
	5	14	2	3	2	1	15	19	14	21	
	6	16	2	3	2	1	11	15	12	21	
	7	20	2	3	2	1	7	14	8	18	
	8	22	2	2	2	1	5	13	4	16	
	9	30	2	2	2	1	4	9	2	15	
61	1	1	4	4	2	2	29	8	27	17	
	2	5	3	3	2	2	26	6	25	16	
	3	8	3	3	2	2	25	6	24	14	
	4	9	3	3	2	2	24	6	19	14	
	5	10	3	3	2	2	21	5	19	12	
	6	12	2	3	2	2	19	4	17	12	
	7	13	2	3	2	2	17	4	14	10	
	8	17	2	3	2	2	16	4	11	9	
	9	24	2	3	2	2	15	3	9	8	
62	1	2	2	3	4	2	26	17	23	22	
	2	3	2	3	3	1	23	16	22	20	
	3	9	2	3	3	1	22	16	21	19	
	4	11	2	3	3	1	19	16	21	16	
	5	12	2	2	3	1	18	16	20	16	
	6	13	2	2	3	1	17	16	19	12	
	7	27	2	2	3	1	16	16	18	11	
	8	28	2	1	3	1	13	16	17	10	
	9	30	2	1	3	1	12	16	17	7	
63	1	8	5	4	3	4	24	27	23	22	
	2	9	4	4	3	4	21	27	21	21	
	3	15	4	4	3	4	19	25	21	20	
	4	16	4	4	3	4	18	25	21	19	
	5	19	4	3	3	4	16	23	19	19	
	6	23	4	3	3	4	13	22	19	18	
	7	24	4	3	3	4	11	21	18	16	
	8	25	4	3	3	4	9	18	17	16	
	9	27	4	3	3	4	8	18	17	15	
64	1	4	5	5	4	4	26	22	3	25	
	2	6	4	4	4	4	26	21	2	25	
	3	8	3	4	4	4	25	18	2	21	
	4	9	3	3	4	4	23	16	2	19	
	5	10	2	2	4	4	22	12	2	19	
	6	20	2	2	3	3	22	10	1	15	
	7	21	1	2	3	3	21	6	1	15	
	8	23	1	1	3	3	19	5	1	13	
	9	27	1	1	3	3	19	1	1	9	
65	1	4	3	2	1	3	23	9	15	27	
	2	6	3	1	1	3	22	8	13	27	
	3	8	3	1	1	3	21	8	11	26	
	4	11	3	1	1	2	19	6	9	24	
	5	12	3	1	1	2	18	6	9	21	
	6	13	3	1	1	2	18	4	7	21	
	7	19	3	1	1	2	17	4	6	18	
	8	27	3	1	1	1	16	3	4	18	
	9	29	3	1	1	1	15	2	2	16	
66	1	7	2	4	1	2	23	24	26	18	
	2	8	2	3	1	1	22	22	25	18	
	3	9	2	3	1	1	20	19	24	17	
	4	13	2	2	1	1	18	16	24	17	
	5	16	2	2	1	1	15	15	23	17	
	6	17	2	2	1	1	12	10	22	16	
	7	18	2	1	1	1	11	7	22	16	
	8	25	2	1	1	1	9	7	21	15	
	9	30	2	1	1	1	6	4	21	15	
67	1	1	5	2	3	3	22	25	27	17	
	2	5	4	1	3	3	21	23	25	14	
	3	6	4	1	3	3	18	22	25	13	
	4	12	4	1	3	3	17	21	25	13	
	5	15	4	1	3	2	12	20	24	12	
	6	18	3	1	3	2	9	19	24	11	
	7	21	3	1	3	2	9	16	23	10	
	8	24	3	1	3	2	5	15	23	9	
	9	25	3	1	3	2	4	14	22	8	
68	1	2	4	5	4	2	12	10	17	23	
	2	12	4	4	3	2	11	10	14	23	
	3	13	4	4	3	2	10	10	14	22	
	4	15	4	3	3	2	10	10	12	21	
	5	18	4	2	2	2	10	10	10	20	
	6	19	4	2	2	2	9	10	8	20	
	7	23	4	1	2	2	9	10	7	19	
	8	25	4	1	1	2	8	10	6	19	
	9	27	4	1	1	2	8	10	5	18	
69	1	5	5	4	4	2	14	5	26	25	
	2	15	4	4	4	2	13	5	24	23	
	3	16	4	4	4	2	12	5	24	19	
	4	17	3	4	4	2	12	5	22	18	
	5	18	3	4	3	2	11	5	21	16	
	6	19	3	4	3	2	9	5	20	13	
	7	20	2	4	3	2	9	5	20	13	
	8	21	2	4	3	2	7	5	19	11	
	9	30	2	4	3	2	7	5	17	8	
70	1	1	3	3	2	4	12	19	23	26	
	2	10	3	3	2	3	11	18	22	25	
	3	14	3	3	2	3	10	17	22	23	
	4	15	3	3	2	3	9	15	22	22	
	5	16	3	3	2	3	8	11	21	22	
	6	23	3	3	2	3	6	9	21	22	
	7	24	3	3	2	3	5	8	20	20	
	8	25	3	3	2	3	5	7	20	20	
	9	26	3	3	2	3	3	5	20	19	
71	1	3	4	3	5	4	11	9	5	14	
	2	5	3	3	4	3	10	9	5	13	
	3	10	3	3	4	3	10	8	5	13	
	4	16	3	3	4	3	10	8	5	12	
	5	18	3	3	4	3	10	7	5	11	
	6	21	3	3	4	2	10	7	4	11	
	7	23	3	3	4	2	10	6	4	10	
	8	24	3	3	4	2	10	6	4	9	
	9	27	3	3	4	2	10	5	4	10	
72	1	4	4	2	3	3	28	20	27	23	
	2	6	4	1	2	2	25	20	25	22	
	3	9	4	1	2	2	23	20	25	20	
	4	18	3	1	2	2	18	19	24	20	
	5	20	3	1	1	1	18	18	24	19	
	6	21	2	1	1	1	15	18	24	18	
	7	23	2	1	1	1	13	18	23	16	
	8	27	1	1	1	1	8	17	22	16	
	9	28	1	1	1	1	8	17	22	15	
73	1	3	3	3	3	1	29	12	19	18	
	2	11	3	3	3	1	27	12	18	16	
	3	12	3	3	3	1	26	12	18	16	
	4	13	3	2	3	1	25	12	18	14	
	5	14	3	2	3	1	23	12	18	14	
	6	17	2	2	3	1	22	12	18	14	
	7	20	2	2	3	1	20	12	18	12	
	8	21	2	1	3	1	20	12	18	11	
	9	29	2	1	3	1	19	12	18	11	
74	1	3	2	2	3	5	8	10	16	26	
	2	11	1	1	3	4	7	9	14	22	
	3	14	1	1	3	4	7	8	14	20	
	4	17	1	1	3	4	7	7	13	17	
	5	18	1	1	2	4	7	5	12	15	
	6	19	1	1	2	4	7	5	10	12	
	7	20	1	1	2	4	7	3	9	9	
	8	23	1	1	1	4	7	2	9	8	
	9	28	1	1	1	4	7	2	8	6	
75	1	13	2	5	1	2	20	24	27	22	
	2	14	2	4	1	2	20	23	25	21	
	3	15	2	4	1	2	20	23	25	20	
	4	20	2	3	1	2	20	22	23	18	
	5	22	2	3	1	2	20	20	21	15	
	6	26	2	3	1	2	19	19	19	14	
	7	27	2	2	1	2	19	18	18	14	
	8	28	2	2	1	2	19	17	17	12	
	9	30	2	2	1	2	19	17	16	10	
76	1	2	3	2	3	3	25	15	24	25	
	2	3	3	2	3	3	22	13	20	23	
	3	10	3	2	3	3	20	11	19	21	
	4	17	3	2	3	3	15	11	16	18	
	5	18	2	2	3	3	14	9	16	13	
	6	22	2	2	3	3	12	8	14	12	
	7	23	1	2	3	3	10	8	11	7	
	8	24	1	2	3	3	8	7	8	6	
	9	29	1	2	3	3	4	6	8	3	
77	1	1	4	2	1	5	15	23	19	16	
	2	2	3	2	1	5	14	22	18	16	
	3	3	3	2	1	5	14	22	18	15	
	4	7	3	2	1	5	12	22	18	15	
	5	10	3	2	1	5	12	21	17	14	
	6	12	3	2	1	5	11	21	17	14	
	7	22	3	2	1	5	9	20	17	13	
	8	23	3	2	1	5	9	20	17	12	
	9	29	3	2	1	5	8	20	17	13	
78	1	6	2	3	2	4	15	15	30	15	
	2	7	2	3	1	3	14	14	25	14	
	3	10	2	3	1	3	14	13	22	12	
	4	12	2	3	1	3	14	13	20	10	
	5	19	2	2	1	2	12	12	17	9	
	6	21	2	2	1	2	12	10	14	7	
	7	23	2	2	1	2	12	10	12	6	
	8	24	2	2	1	2	11	9	10	4	
	9	25	2	2	1	2	10	8	8	3	
79	1	4	5	4	4	2	21	28	11	9	
	2	5	4	4	4	2	21	25	10	8	
	3	6	4	4	4	2	21	23	10	7	
	4	8	4	3	4	2	20	21	10	6	
	5	12	3	3	4	2	20	20	10	5	
	6	17	3	3	4	2	19	20	10	5	
	7	20	3	2	4	2	18	18	10	4	
	8	27	2	2	4	2	18	16	10	4	
	9	29	2	2	4	2	18	14	10	3	
80	1	1	5	4	1	4	22	16	19	30	
	2	3	4	3	1	4	20	16	15	29	
	3	5	4	3	1	4	18	15	14	29	
	4	6	4	3	1	4	17	15	14	29	
	5	11	4	2	1	4	14	14	10	28	
	6	13	4	2	1	4	12	14	10	28	
	7	14	4	2	1	4	11	13	8	28	
	8	15	4	1	1	4	8	12	7	28	
	9	19	4	1	1	4	6	12	5	28	
81	1	1	4	3	3	4	12	28	24	9	
	2	2	3	3	3	4	10	27	22	9	
	3	3	3	3	3	3	10	27	19	9	
	4	6	3	3	3	3	9	27	18	9	
	5	9	2	3	2	2	9	27	16	9	
	6	19	2	3	2	2	8	27	15	9	
	7	23	2	3	1	2	7	27	13	9	
	8	24	2	3	1	1	7	27	12	9	
	9	25	2	3	1	1	6	27	10	9	
82	1	1	2	3	5	2	29	23	26	28	
	2	2	2	3	4	2	28	20	26	25	
	3	4	2	3	4	2	28	18	26	24	
	4	11	2	3	3	2	28	18	25	24	
	5	15	2	2	3	2	28	17	25	22	
	6	21	2	2	3	2	28	14	24	21	
	7	27	2	2	3	2	28	13	23	19	
	8	29	2	2	2	2	28	11	23	17	
	9	30	2	2	2	2	28	11	23	16	
83	1	3	4	3	4	1	27	20	9	23	
	2	8	4	3	4	1	24	18	8	23	
	3	9	4	3	4	1	21	14	8	22	
	4	11	4	3	3	1	21	14	8	22	
	5	12	4	2	3	1	17	11	7	20	
	6	18	4	2	3	1	15	9	7	20	
	7	19	4	1	3	1	13	7	7	19	
	8	26	4	1	2	1	11	4	6	19	
	9	27	4	1	2	1	9	2	6	18	
84	1	6	2	4	3	4	13	26	18	13	
	2	7	1	4	3	3	12	26	16	12	
	3	13	1	4	3	3	11	25	15	11	
	4	15	1	4	2	3	9	25	14	10	
	5	16	1	3	2	3	9	24	14	9	
	6	17	1	3	2	2	8	24	13	9	
	7	20	1	3	1	2	7	23	12	8	
	8	24	1	3	1	2	7	23	11	6	
	9	27	1	3	1	2	6	23	9	5	
85	1	1	1	5	3	5	20	15	16	24	
	2	4	1	4	3	4	18	15	13	23	
	3	5	1	4	3	4	18	13	13	23	
	4	8	1	4	3	4	16	11	10	22	
	5	10	1	3	3	4	15	9	9	22	
	6	11	1	3	2	4	14	6	8	22	
	7	20	1	3	2	4	13	5	7	21	
	8	27	1	3	2	4	10	2	6	20	
	9	30	1	3	2	4	9	2	4	20	
86	1	3	4	2	5	5	17	24	10	19	
	2	8	4	1	4	4	17	23	9	19	
	3	14	4	1	4	4	17	20	9	19	
	4	16	4	1	4	4	17	19	9	19	
	5	23	4	1	3	4	17	18	9	19	
	6	24	4	1	3	4	17	16	9	19	
	7	28	4	1	3	4	17	15	9	19	
	8	29	4	1	3	4	17	12	9	20	
	9	30	4	1	3	4	17	12	9	19	
87	1	3	2	4	4	1	28	10	26	16	
	2	10	2	3	3	1	25	8	26	16	
	3	11	2	3	3	1	25	8	26	15	
	4	17	2	3	3	1	24	6	26	14	
	5	18	2	3	2	1	22	6	26	12	
	6	19	2	2	2	1	20	6	25	11	
	7	20	2	2	2	1	19	5	25	11	
	8	21	2	2	2	1	18	4	25	9	
	9	24	2	2	2	1	17	3	25	8	
88	1	1	2	2	3	3	30	23	24	21	
	2	2	1	2	2	3	26	23	22	19	
	3	5	1	2	2	3	21	23	21	17	
	4	6	1	2	2	3	18	23	19	15	
	5	11	1	2	2	2	16	23	15	14	
	6	19	1	2	2	2	10	23	14	12	
	7	22	1	2	2	2	7	23	12	12	
	8	23	1	2	2	2	7	23	7	11	
	9	25	1	2	2	2	4	23	6	8	
89	1	3	3	1	5	1	19	12	17	18	
	2	5	3	1	4	1	18	11	17	17	
	3	7	3	1	4	1	16	10	16	17	
	4	12	3	1	4	1	16	10	15	16	
	5	14	3	1	3	1	15	9	15	16	
	6	18	3	1	3	1	14	6	14	16	
	7	19	3	1	2	1	13	6	13	16	
	8	24	3	1	2	1	11	5	13	15	
	9	29	3	1	2	1	11	4	12	15	
90	1	3	5	5	3	5	28	28	18	9	
	2	4	4	4	2	4	27	28	17	9	
	3	5	4	4	2	4	25	28	14	9	
	4	8	3	3	2	3	24	28	14	9	
	5	9	3	3	1	3	23	27	11	9	
	6	10	3	2	1	3	22	27	10	8	
	7	13	2	1	1	2	21	26	8	8	
	8	20	2	1	1	2	20	26	6	8	
	9	28	2	1	1	2	20	26	5	8	
91	1	5	4	2	3	2	28	20	11	21	
	2	8	4	2	2	2	25	20	11	21	
	3	9	4	2	2	2	24	17	9	21	
	4	11	4	2	2	2	23	14	9	21	
	5	12	3	2	2	2	22	13	7	21	
	6	13	3	2	1	2	20	13	5	21	
	7	14	3	2	1	2	18	10	4	21	
	8	23	3	2	1	2	17	7	3	21	
	9	30	3	2	1	2	16	7	1	21	
92	1	2	5	3	4	2	23	22	29	19	
	2	7	4	3	3	1	20	21	26	16	
	3	12	3	3	3	1	17	21	21	15	
	4	16	3	3	3	1	15	21	18	14	
	5	17	2	2	3	1	15	21	15	13	
	6	18	2	2	3	1	11	20	13	11	
	7	22	1	2	3	1	9	20	10	11	
	8	25	1	2	3	1	8	20	8	10	
	9	27	1	2	3	1	6	20	3	9	
93	1	7	3	3	2	5	20	18	12	26	
	2	8	3	3	2	4	18	17	11	23	
	3	9	3	3	2	4	17	15	11	21	
	4	10	3	3	2	4	16	15	11	16	
	5	20	3	2	2	4	16	14	10	15	
	6	25	3	2	2	3	16	13	10	12	
	7	27	3	1	2	3	15	12	9	12	
	8	28	3	1	2	3	13	12	8	9	
	9	30	3	1	2	3	13	11	8	5	
94	1	1	5	1	3	1	17	23	27	21	
	2	2	4	1	3	1	16	23	25	19	
	3	3	4	1	3	1	16	23	23	16	
	4	5	4	1	3	1	15	23	19	14	
	5	9	3	1	3	1	14	23	18	14	
	6	10	3	1	3	1	11	23	15	10	
	7	20	3	1	3	1	11	23	15	9	
	8	24	3	1	3	1	10	23	11	8	
	9	30	3	1	3	1	8	23	9	4	
95	1	1	4	2	5	1	27	10	20	26	
	2	3	4	1	4	1	27	9	16	26	
	3	9	3	1	4	1	25	9	15	23	
	4	10	3	1	3	1	23	9	12	19	
	5	12	2	1	3	1	22	8	12	17	
	6	13	2	1	3	1	20	8	10	13	
	7	16	2	1	3	1	19	8	8	13	
	8	29	1	1	2	1	15	8	5	8	
	9	30	1	1	2	1	14	8	4	8	
96	1	1	2	4	2	5	18	18	5	18	
	2	3	1	4	2	5	15	18	4	18	
	3	7	1	4	2	5	14	18	4	16	
	4	21	1	3	2	5	10	18	4	16	
	5	22	1	3	2	5	10	17	4	15	
	6	23	1	3	2	5	7	17	3	15	
	7	25	1	3	2	5	4	17	3	13	
	8	26	1	2	2	5	4	17	3	13	
	9	27	1	2	2	5	2	17	3	12	
97	1	2	2	4	4	4	15	18	15	10	
	2	8	2	4	3	4	15	18	14	8	
	3	20	2	4	3	4	15	16	14	7	
	4	23	2	4	3	4	15	14	14	7	
	5	24	2	4	3	4	15	14	14	6	
	6	26	2	3	2	4	15	13	13	5	
	7	27	2	3	2	4	15	10	13	4	
	8	28	2	3	2	4	15	9	13	4	
	9	29	2	3	2	4	15	9	13	3	
98	1	3	3	4	5	4	15	19	20	10	
	2	5	3	4	4	4	14	18	18	8	
	3	9	3	4	4	4	13	14	15	8	
	4	14	3	4	4	4	12	14	14	8	
	5	18	2	4	3	4	10	11	12	7	
	6	19	2	3	3	4	9	10	10	6	
	7	23	2	3	3	4	8	7	6	6	
	8	25	2	3	2	4	5	5	6	5	
	9	29	2	3	2	4	4	3	3	4	
99	1	5	4	4	3	3	19	11	28	21	
	2	12	4	4	2	3	18	11	27	17	
	3	13	4	4	2	3	17	11	25	15	
	4	14	3	4	2	3	15	11	24	15	
	5	16	3	4	2	2	13	11	23	13	
	6	21	3	4	1	2	11	11	23	9	
	7	23	3	4	1	2	9	11	22	8	
	8	29	2	4	1	2	9	11	20	5	
	9	30	2	4	1	2	8	11	19	4	
100	1	1	3	3	3	3	18	21	29	13	
	2	3	3	3	3	3	18	20	29	13	
	3	7	3	3	3	3	16	20	29	13	
	4	9	3	3	3	2	15	20	29	13	
	5	11	2	2	3	2	15	20	29	13	
	6	12	2	2	3	2	15	20	29	12	
	7	14	1	2	3	2	14	20	29	13	
	8	28	1	2	3	1	13	20	29	13	
	9	29	1	2	3	1	12	20	29	13	
101	1	1	4	4	4	5	24	27	24	26	
	2	2	4	4	4	5	23	26	21	25	
	3	3	4	4	4	5	21	26	21	24	
	4	6	4	3	3	5	20	26	18	23	
	5	13	4	3	3	5	19	24	17	23	
	6	14	4	3	3	5	18	24	17	22	
	7	17	4	3	3	5	17	23	15	21	
	8	23	4	2	2	5	14	23	14	21	
	9	28	4	2	2	5	13	22	12	20	
102	1	0	0	0	0	0	0	0	0	0	
************************************************************************

 RESOURCE AVAILABILITIES 
	R 1	R 2	R 3	R 4	N 1	N 2	N 3	N 4
	47	46	47	50	1769	1698	1785	1724

************************************************************************
